data;

set A := 88850265 182112149 477726631 680332334 136168797 110304221 325625222 611642081 119524237 989401531 526295564 157823316 530258115 788681021 983833508 991836176;
param T := 4000000000;

end;
